Route #1: 33 29 9 34 35 
Route #2: 39 23 22 4 25 
Route #3: 14 44 38 43 13 
Route #4: 11 19 49 48 
Route #5: 27 18 6 
Route #6: 31 30 20 32 
Route #7: 42 15 41 26 
Route #8: 2 21 40 50 1 
Route #9: 5 16 37 
Route #10: 36 47 7 10 
Route #11: 28 12 3 24 
Route #12: 45 8 46 17 
Objective: 101124.0
